%chk=C:\Users\Hp\Desktop\weekly report\New KS-AGU synthesis and docking calculations\New KS-AGU in cavity 4\dock_ligand_001.chk
# hf/3-21g geom=connectivity

Title Card Required

0 1
 N(PDBName=N1,ResName=,ResNum=0)                     119.87700000  108.31000000  113.40600000
 H(PDBName=1H1,ResName=,ResNum=0)                    120.13600000  107.34800000  113.24900000
 H(PDBName=2H1,ResName=,ResNum=0)                    119.07800000  108.73200000  112.95700000
 C(PDBName=C2,ResName=,ResNum=0)                     120.67800000  109.02000000  114.23800000
 C(PDBName=C3,ResName=,ResNum=0)                     120.27600000  110.49000000  114.48400000
 H(PDBName=1H3,ResName=,ResNum=0)                    120.69500000  110.80700000  115.33500000
 H(PDBName=2H3,ResName=,ResNum=0)                    120.60200000  111.05100000  113.72300000
 N(PDBName=N4,ResName=,ResNum=0)                     118.79900000  110.69300000  114.60000000
 C(PDBName=C5,ResName=,ResNum=0)                     118.18500000  110.11600000  115.81800000
 H(PDBName=1H5,ResName=,ResNum=0)                    118.88400000  109.57500000  116.28700000
 H(PDBName=2H5,ResName=,ResNum=0)                    117.43700000  109.51700000  115.53000000
 C(PDBName=C6,ResName=,ResNum=0)                     117.64400000  111.20700000  116.76900000
 H(PDBName=1H6,ResName=,ResNum=0)                    117.12900000  111.88800000  116.24900000
 H(PDBName=2H6,ResName=,ResNum=0)                    117.04900000  110.79400000  117.45900000
 N(PDBName=N7,ResName=,ResNum=0)                     118.73300000  111.90300000  117.47100000
 H(PDBName=H7,ResName=,ResNum=0)                     119.36600000  112.47700000  116.92200000
 C(PDBName=C8,ResName=,ResNum=0)                     118.92300000  111.81800000  118.83200000
 C(PDBName=C9,ResName=,ResNum=0)                     120.16000000  112.56800000  119.37200000
 H(PDBName=1H9,ResName=,ResNum=0)                    120.55700000  113.11900000  118.63800000
 H(PDBName=2H9,ResName=,ResNum=0)                    119.88000000  113.16500000  120.12400000
 N(PDBName=N10,ResName=,ResNum=0)                    121.22800000  111.64800000  119.88800000
 C(PDBName=C11,ResName=,ResNum=0)                    121.10000000  111.29700000  121.32200000
 H(PDBName=1H11,ResName=,ResNum=0)                   120.28000000  111.74600000  121.67600000
 H(PDBName=2H11,ResName=,ResNum=0)                   121.90600000  111.65100000  121.79800000
 C(PDBName=C12,ResName=,ResNum=0)                    120.99500000  109.77100000  121.54100000
 H(PDBName=1H12,ResName=,ResNum=0)                   121.65100000  109.29600000  120.95500000
 H(PDBName=2H12,ResName=,ResNum=0)                   121.18100000  109.55000000  122.49900000
 N(PDBName=N13,ResName=,ResNum=0)                    119.64900000  109.27300000  121.21400000
 H(PDBName=H13,ResName=,ResNum=0)                    118.86900000  109.90700000  121.32300000
 C(PDBName=C14,ResName=,ResNum=0)                    115.74400000  107.26000000  115.96500000
 O(PDBName=O15,ResName=,ResNum=0)                    121.65300000  108.49200000  114.72400000
 O(PDBName=O16,ResName=,ResNum=0)                    118.16700000  111.17700000  119.53600000
 C(PDBName=C17,ResName=,ResNum=0)                    117.99700000  111.31500000  113.63700000
 C(PDBName=C18,ResName=,ResNum=0)                    122.37400000  111.23700000  119.18800000
 C(PDBName=C19,ResName=,ResNum=0)                    118.67900000  112.05300000  112.48000000
 H(PDBName=1H19,ResName=,ResNum=0)                   118.43600000  113.02300000  112.50600000
 H(PDBName=2H19,ResName=,ResNum=0)                   119.67200000  111.95600000  112.55300000
 C(PDBName=C20,ResName=,ResNum=0)                    122.48800000  111.65600000  117.71100000
 H(PDBName=1H20,ResName=,ResNum=0)                   122.79900000  110.87300000  117.17200000
 H(PDBName=2H20,ResName=,ResNum=0)                   121.59000000  111.95000000  117.38400000
 O(PDBName=O21,ResName=,ResNum=0)                    116.78000000  111.24300000  113.67200000
 N(PDBName=N22,ResName=,ResNum=0)                    118.26200000  111.51200000  111.17700000
 N(PDBName=N23,ResName=,ResNum=0)                    123.42800000  112.76300000  117.45300000
 C(PDBName=C24,ResName=,ResNum=0)                    117.62000000  110.27900000  110.98400000
 H(PDBName=H24,ResName=,ResNum=0)                    117.10900000  109.80500000  111.70100000
 N(PDBName=N25,ResName=,ResNum=0)                    117.76300000  109.80400000  109.73900000
 C(PDBName=C26,ResName=,ResNum=0)                    118.42900000  110.77900000  109.10500000
 C(PDBName=C27,ResName=,ResNum=0)                    118.71300000  111.81500000  109.91600000
 C(PDBName=C28,ResName=,ResNum=0)                    124.20000000  112.93500000  116.33800000
 C(PDBName=C29,ResName=,ResNum=0)                    124.83000000  114.13200000  116.45600000
 N(PDBName=N30,ResName=,ResNum=0)                    124.49000000  114.74800000  117.64300000
 C(PDBName=C31,ResName=,ResNum=0)                    123.63700000  113.90700000  118.22000000
 H(PDBName=H31,ResName=,ResNum=0)                    123.19700000  114.07500000  119.10200000
 N(PDBName=N32,ResName=,ResNum=0)                    118.81900000  110.77400000  107.83500000
 C(PDBName=C33,ResName=,ResNum=0)                    119.46400000  111.87000000  107.41300000
 H(PDBName=H33,ResName=,ResNum=0)                    119.75500000  111.88000000  106.45600000
 N(PDBName=N34,ResName=,ResNum=0)                    119.76000000  112.95700000  108.14800000
 C(PDBName=C35,ResName=,ResNum=0)                    119.35900000  112.92200000  109.40000000
 N(PDBName=N36,ResName=,ResNum=0)                    124.35300000  112.10800000  115.22400000
 C(PDBName=C37,ResName=,ResNum=0)                    125.14800000  112.52100000  114.24500000
 N(PDBName=N38,ResName=,ResNum=0)                    125.78200000  113.72400000  114.29400000
 H(PDBName=H38,ResName=,ResNum=0)                    126.37900000  114.08100000  113.57600000
 C(PDBName=C39,ResName=,ResNum=0)                    125.68100000  114.57100000  115.35900000
 O(PDBName=O40,ResName=,ResNum=0)                    126.30000000  115.61400000  115.28200000
 N(PDBName=N41,ResName=,ResNum=0)                    125.35200000  111.75200000  113.17700000
 H(PDBName=1H41,ResName=,ResNum=0)                   125.74600000  112.14800000  112.34400000
 H(PDBName=2H41,ResName=,ResNum=0)                   125.04500000  110.79100000  113.28300000
 N(PDBName=N42,ResName=,ResNum=0)                    119.65300000  114.04300000  110.08500000
 H(PDBName=1H42,ResName=,ResNum=0)                   120.10000000  114.77000000  109.55000000
 H(PDBName=2H42,ResName=,ResNum=0)                   119.34600000  114.17900000  111.03100000
 O(PDBName=O43,ResName=,ResNum=0)                    123.24800000  110.58200000  119.72600000
 C(PDBName=C44,ResName=,ResNum=0)                    115.78200000  106.66500000  114.52600000
 H(PDBName=H44,ResName=,ResNum=0)                    114.85900000  106.35200000  114.30100000
 N(PDBName=N45,ResName=,ResNum=0)                    116.67600000  105.47300000  114.47500000
 H(PDBName=H45,ResName=,ResNum=0)                    117.67200000  105.62100000  114.59100000
 C(PDBName=C46,ResName=,ResNum=0)                    116.21600000  104.20100000  114.25200000
 C(PDBName=C47,ResName=,ResNum=0)                    117.25200000  103.07600000  114.19900000
 H(PDBName=H47,ResName=,ResNum=0)                    116.91100000  102.31500000  114.75100000
 C(PDBName=C48,ResName=,ResNum=0)                    116.20900000  107.69800000  113.45000000
 H(PDBName=1H48,ResName=,ResNum=0)                   116.25300000  108.60300000  113.87500000
 H(PDBName=2H48,ResName=,ResNum=0)                   117.11300000  107.44700000  113.10600000
 N(PDBName=N49,ResName=,ResNum=0)                    118.57500000  103.55600000  114.80500000
 H(PDBName=1H49,ResName=,ResNum=0)                   119.34800000  102.95200000  114.47700000
 H(PDBName=2H49,ResName=,ResNum=0)                   118.54300000  103.58000000  115.83300000
 H(PDBName=3H49,ResName=,ResNum=0)                   118.74100000  104.52500000  114.48500000
 C(PDBName=C50,ResName=,ResNum=0)                    117.45100000  102.55300000  112.75600000
 H(PDBName=1H50,ResName=,ResNum=0)                   116.56900000  102.49500000  112.28900000
 H(PDBName=2H50,ResName=,ResNum=0)                   118.05700000  103.16700000  112.25000000
 C(PDBName=C51,ResName=,ResNum=0)                    119.37900000  107.97200000  120.85700000
 C(PDBName=C52,ResName=,ResNum=0)                    117.87700000  107.62400000  120.80500000
 H(PDBName=1H52,ResName=,ResNum=0)                   117.46700000  107.83300000  121.69300000
 H(PDBName=2H52,ResName=,ResNum=0)                   117.44100000  108.18100000  120.09800000
 O(PDBName=O53,ResName=,ResNum=0)                    120.25400000  107.15000000  120.68000000
 N(PDBName=N54,ResName=,ResNum=0)                    117.57900000  106.18500000  120.49500000
 C(PDBName=C55,ResName=,ResNum=0)                    117.48100000  105.87200000  119.05300000
 H(PDBName=1H55,ResName=,ResNum=0)                   117.01600000  104.99100000  118.96200000
 H(PDBName=2H55,ResName=,ResNum=0)                   118.41100000  105.79700000  118.69300000
 C(PDBName=C56,ResName=,ResNum=0)                    117.32200000  105.16300000  121.42700000
 C(PDBName=C57,ResName=,ResNum=0)                    117.35600000  105.53200000  122.93400000
 H(PDBName=1H57,ResName=,ResNum=0)                   118.14000000  105.06900000  123.34800000
 H(PDBName=2H57,ResName=,ResNum=0)                   117.47500000  106.52200000  123.00800000
 N(PDBName=N58,ResName=,ResNum=0)                    116.15400000  105.18000000  123.77700000
 O(PDBName=O59,ResName=,ResNum=0)                    117.06300000  104.02700000  121.06300000
 C(PDBName=C60,ResName=,ResNum=0)                    114.87200000  105.59400000  123.39800000
 H(PDBName=H60,ResName=,ResNum=0)                    114.67100000  106.11800000  122.57000000
 C(PDBName=C61,ResName=,ResNum=0)                    113.93000000  105.19000000  124.30400000
 H(PDBName=H61,ResName=,ResNum=0)                    112.97300000  105.42000000  124.12500000
 C(PDBName=C62,ResName=,ResNum=0)                    114.24100000  104.44800000  125.50500000
 N(PDBName=N63,ResName=,ResNum=0)                    115.51700000  104.10300000  125.83800000
 H(PDBName=H63,ResName=,ResNum=0)                    115.71500000  103.61000000  126.68400000
 C(PDBName=C64,ResName=,ResNum=0)                    116.51300000  104.47400000  124.95500000
 O(PDBName=O65,ResName=,ResNum=0)                    117.66500000  104.18900000  125.22700000
 O(PDBName=O66,ResName=,ResNum=0)                    113.37700000  104.10500000  126.28200000
 C(PDBName=C67,ResName=,ResNum=0)                    116.70400000  106.95300000  118.27000000
 H(PDBName=1H67,ResName=,ResNum=0)                   115.82700000  107.13600000  118.71500000
 H(PDBName=2H67,ResName=,ResNum=0)                   117.23900000  107.79700000  118.22700000
 N(PDBName=N68,ResName=,ResNum=0)                    116.43200000  106.51500000  116.89300000
 H(PDBName=H68,ResName=,ResNum=0)                    116.84500000  105.65700000  116.55600000
 O(PDBName=O69,ResName=,ResNum=0)                    115.19400000  108.30800000  116.25500000
 C(PDBName=C70,ResName=,ResNum=0)                    115.22400000  107.76100000  112.25500000
 H(PDBName=1H70,ResName=,ResNum=0)                   114.28700000  107.72600000  112.60200000
 H(PDBName=2H70,ResName=,ResNum=0)                   115.36500000  108.61900000  111.76100000
 C(PDBName=C71,ResName=,ResNum=0)                    115.43500000  106.58800000  111.28000000
 H(PDBName=1H71,ResName=,ResNum=0)                   115.16200000  105.73700000  111.72800000
 H(PDBName=2H71,ResName=,ResNum=0)                   114.87200000  106.73300000  110.46600000
 C(PDBName=C72,ResName=,ResNum=0)                    116.91400000  106.48400000  110.85900000
 H(PDBName=1H72,ResName=,ResNum=0)                   117.43700000  107.17300000  111.36100000
 H(PDBName=2H72,ResName=,ResNum=0)                   117.24900000  105.57200000  111.09600000
 N(PDBName=N73,ResName=,ResNum=0)                    117.14700000  106.70400000  109.36700000
 H(PDBName=1H73,ResName=,ResNum=0)                   117.40100000  107.68200000  109.16700000
 H(PDBName=2H73,ResName=,ResNum=0)                   116.30100000  106.47400000  108.82200000
 H(PDBName=3H73,ResName=,ResNum=0)                   117.91300000  106.10200000  109.02400000
 O(PDBName=O74,ResName=,ResNum=0)                    115.04500000  103.94000000  114.07500000
 C(PDBName=C75,ResName=,ResNum=0)                    118.07800000  101.16900000  112.82100000
 C(PDBName=C76,ResName=,ResNum=0)                    117.34800000  100.08800000  113.34400000
 H(PDBName=H76,ResName=,ResNum=0)                    116.39900000  100.21800000  113.63200000
 C(PDBName=C77,ResName=,ResNum=0)                    117.95000000   98.82300000  113.46400000
 H(PDBName=H77,ResName=,ResNum=0)                    117.42700000   98.05200000  113.82700000
 C(PDBName=C78,ResName=,ResNum=0)                    119.28500000   98.64200000  113.07400000
 C(PDBName=C79,ResName=,ResNum=0)                    120.01700000   99.72100000  112.56300000
 H(PDBName=H79,ResName=,ResNum=0)                    120.97100000   99.59300000  112.29300000
 C(PDBName=C80,ResName=,ResNum=0)                    119.41600000  100.98200000  112.42800000
 H(PDBName=H80,ResName=,ResNum=0)                    119.93900000  101.74800000  112.05200000
 O(PDBName=O81,ResName=,ResNum=0)                    119.88000000   97.42500000  113.19000000
 H(PDBName=H81,ResName=,ResNum=0)                    119.19700000   96.75900000  113.37700000

 1 2 1.0 3 1.0 4 1.5
 2
 3
 4 5 1.0 31 2.0
 5 6 1.0 7 1.0 8 1.0
 6
 7
 8 9 1.0 33 1.0
 9 10 1.0 11 1.0 12 1.0
 10
 11
 12 13 1.0 14 1.0 15 1.0
 13
 14
 15 16 1.0 17 1.5
 16
 17 18 1.0 32 2.0
 18 19 1.0 20 1.0 21 1.0
 19
 20
 21 22 1.0 34 1.0
 22 23 1.0 24 1.0 25 1.0
 23
 24
 25 26 1.0 27 1.0 28 1.0
 26
 27
 28 29 1.0 89 1.5
 29
 30 72 1.0 117 1.5 119 2.0
 31
 32
 33 35 1.0 41 2.0
 34 38 1.0 71 2.0
 35 36 1.0 37 1.0 42 1.0
 36
 37
 38 39 1.0 40 1.0 43 1.0
 39
 40
 41
 42 44 1.0 48 1.5
 43 49 1.5 52 1.0
 44 45 1.0 46 1.5
 45
 46 47 1.5
 47 48 2.0 54 1.5
 48 58 2.0
 49 50 2.0 59 1.0
 50 51 1.5 63 1.0
 51 52 1.5
 52 53 1.0
 53
 54 55 1.5
 55 56 1.0 57 1.5
 56
 57 58 2.0
 58 68 1.5
 59 60 1.5
 60 61 1.5 65 1.5
 61 62 1.0 63 1.5
 62
 63 64 2.0
 64
 65 66 1.0 67 1.0
 66
 67
 68 69 1.0 70 1.0
 69
 70
 71
 72 73 1.0 74 1.0 79 1.0
 73
 74 75 1.0 76 1.5
 75
 76 77 1.0 133 2.0
 77 78 1.0 82 1.0 86 1.0
 78
 79 80 1.0 81 1.0 120 1.0
 80
 81
 82 83 1.0 84 1.0 85 1.0
 83
 84
 85
 86 87 1.0 88 1.0 134 1.0
 87
 88
 89 90 1.0 93 2.0
 90 91 1.0 92 1.0 94 1.0
 91
 92
 93
 94 95 1.0 98 1.0
 95 96 1.0 97 1.0 114 1.0
 96
 97
 98 99 1.0 103 2.0
 99 100 1.0 101 1.0 102 1.0
 100
 101
 102 104 1.0 111 1.0
 103
 104 105 1.0 106 2.0
 105
 106 107 1.0 108 1.5
 107
 108 109 1.5 113 2.0
 109 110 1.0 111 1.5
 110
 111 112 2.0
 112
 113
 114 115 1.0 116 1.0 117 1.0
 115
 116
 117 118 1.0
 118
 119
 120 121 1.0 122 1.0 123 1.0
 121
 122
 123 124 1.0 125 1.0 126 1.0
 124
 125
 126 127 1.0 128 1.0 129 1.0
 127
 128
 129 130 1.0 131 1.0 132 1.0
 130
 131
 132
 133
 134 135 1.5 142 1.5
 135 136 1.0 137 1.5
 136
 137 138 1.0 139 1.5
 138
 139 140 1.5 144 1.0
 140 141 1.0 142 1.5
 141
 142 143 1.0
 143
 144 145 1.0
 145


